NAME: instance_2676
TYPE: TSP
DIMENSION: 20
EDGE_WEIGHT_TYPE: EUC_2D
NODE_COORD_SECTION
0 86.41 63.49
1 70.21 76.22
2 92.63 5.01
3 65.45 25.66
4 61.64 53.59
5 30.95 68.79
6 95.26 46.81
7 72.84 33.01
8 51.49 63.70
9 99.58 72.05
10 18.75 63.25
11 8.52 10.44
12 32.19 88.07
13 31.31 83.65
14 78.27 37.10
15 92.61 95.82
16 76.75 64.53
17 25.19 90.57
18 22.04 38.58
19 51.58 1.24
EOF
